1000
1000
700
700
700
699
699
698
698
698
698
697
697
696
696
696
696
695
695
694
693
693
692
692
692
692
692
691
690
690
689
689
688
688
686
686
686
685
685
684
684
684
684
683
683
682
680
680
680
680
679
679
679
677
676
675
675
674
674
673
673
673
672
672
672
671
671
671
670
670
669
669
668
668
667
667
666
665
665
665
662
662
661
661
660
660
660
660
660
659
659
659
658
658
658
658
657
657
657
656
656
655
655
654
654
654
654
652
652
652
651
650
650
649
648
648
648
647
647
646
645
645
643
642
642
642
642
641
641
639
639
639
639
639
638
638
637
637
636
636
636
636
635
634
634
633
633
632
632
631
630
630
630
630
630
630
629
628
626
625
624
624
624
622
621
621
620
619
619
618
618
618
617
617
617
616
615
614
613
612
612
612
612
611
611
610
610
609
608
608
607
607
605
605
605
605
604
604
604
602
602
602
602
601
601
600
598
598
597
597
596
595
594
594
594
593
593
593
593
592
592
591
591
591
591
590
589
589
588
587
586
586
586
586
586
585
585
584
584
583
582
580
580
580
580
580
578
578
578
577
577
577
576
576
576
575
573
573
572
572
571
571
571
570
570
570
569
569
569
568
568
567
565
565
565
564
564
563
563
562
562
562
562
561
561
560
559
558
557
557
556
556
556
555
555
555
555
552
551
551
551
550
550
550
550
548
548
548
546
546
546
543
543
543
543
542
541
539
538
538
538
537
536
535
535
534
534
534
531
531
530
530
530
529
529
529
529
528
527
527
526
526
525
525
524
524
523
522
522
522
522
521
521
521
521
520
519
518
518
517
516
515
513
513
513
513
513
511
511
510
510
510
509
508
508
507
507
506
506
505
504
503
503
503
502
501
501
499
498
497
497
496
496
496
494
493
492
492
491
491
491
490
490
488
488
488
488
487
486
485
484
484
484
483
483
482
481
480
479
478
478
478
478
477
477
476
475
475
474
472
471
470
469
469
469
468
467
467
467
466
465
465
465
465
464
464
463
463
463
462
462
462
462
461
461
461
460
460
460
459
459
458
458
458
457
457
457
456
456
456
455
455
455
454
454
453
453
452
452
451
451
451
451
451
450
449
449
449
449
449
447
447
447
446
446
445
445
444
443
443
443
441
441
441
440
440
439
438
438
438
437
436
434
434
434
433
433
432
432
432
432
432
431
431
431
430
430
430
429
428
427
427
426
425
425
425
425
424
424
423
422
422
422
421
421
421
420
420
419
418
417
417
417
416
416
416
416
415
414
414
414
414
414
414
414
413
412
411
411
410
410
410
410
409
409
408
408
408
407
407
407
406
405
405
405
405
404
403
403
402
401
401
401
401
400
400
399
398
398
397
397
397
397
397
396
396
396
394
394
393
393
392
392
392
392
390
389
389
388
388
388
388
386
386
386
386
385
385
385
384
384
384
384
383
383
383
383
383
382
381
381
381
381
380
379
379
379
378
378
378
378
376
375
375
374
374
373
373
373
373
372
371
371
371
371
370
370
370
369
369
368
368
367
366
366
365
365
365
363
362
362
361
360
360
359
359
359
358
357
357
357
357
357
356
356
355
355
355
354
354
353
352
352
352
352
351
351
351
351
351
351
350
349
348
348
348
348
347
346
345
345
345
345
345
344
344
344
343
343
341
341
340
340
339
338
338
338
337
336
335
335
335
334
334
334
333
333
332
332
331
329
329
329
328
328
327
326
326
325
324
324
323
323
322
322
321
320
319
317
316
316
315
314
314
314
313
312
312
312
311
310
310
309
309
308
307
307
307
306
305
305
305
305
304
304
303
303
303
302
301
301
301
301
301
300
300
298
298
298
297
297
297
297
296
295
294
294
294
294
292
292
291
291
291
291
291
291
290
289
289
289
289
288
287
286
286
286
286
286
286
285
285
284
283
283
283
282
281
281
281
280
280
279
279
278
278
278
277
276
276
275
275
275
275
274
273
273
272
272
272
271
271
271
271
271
270
270
270
269
269
269
269
268
267
267
267
266
266
266
265
265
265
264
264
263
263
263
263
263
262
262
262
261
259
258
258
257
257
257
257
256
256
255
255
254
254
254
251
251
251
250
249
249
248
248
247
247
246
245
245
244
244
243
242
241
241
240
240
240
239
237
236
235
234
233
233
233
233
233
232
232
232
230
230
229
229
229
228
227
224
223
223
223
223
222
222
219
219
219
217
216
216
215
215
215
214
214
214
213
213
213
212
211
211
211
211
211
210
209
209
208
207
207
206
205
205
205
204
203
201
200
200
